450
588
93
384
152
405
176
170
816
400
510
423
504
400
688
256
735
702
140
585
245
1040
697
155
144
333
364
484
561
450
40
290
460
684
475
672
155
735
684
432
540
374
918
738
390
705
407
182
344
608
650
